V = [
	[0.0, 18.765770846285733, 122.99861078659502, 212.42381449034696, 71.71944010600023, 108.79527687965911],
	[18.765770846285733, 0.0, 222.75747056171357, 221.3577420253697, 38.99354030519194, 200.56423903665038],
	[122.99861078659502, 222.75747056171357, 0.0, 183.2275549876018, 233.83714360831817, 147.62282246452332],
	[212.42381449034696, 221.3577420253697, 183.2275549876018, 0.0, 95.32872510285688, 519.0046450923884],
	[71.71944010600023, 38.99354030519194, 233.83714360831817, 95.32872510285688, 0.0, 354.85150295720837],
	[108.79527687965911, 200.56423903665038, 147.62282246452332, 519.0046450923884, 354.85150295720837, 0.0]
];
